NAME          
ROWS
 N  OBJ
 L  c1
 L  c2
COLUMNS
    MARKER    'MARKER'                 'INTORG'
    x[1]      c1        316
    x[1]      c2        130
    x[1]      OBJ       -528
    x[2]      c1        386
    x[2]      c2        816
    x[2]      OBJ       -298
    x[3]      c1        718
    x[3]      c2        492
    x[3]      OBJ       -331
    x[4]      c1        679
    x[4]      c2        55
    x[4]      OBJ       -420
    x[5]      c1        34
    x[5]      c2        585
    x[5]      OBJ       -33
    x[6]      c1        336
    x[6]      c2        337
    x[6]      OBJ       -549
    x[7]      c1        979
    x[7]      c2        667
    x[7]      OBJ       -535
    x[8]      c1        176
    x[8]      c2        101
    x[8]      OBJ       -55
    x[9]      c1        199
    x[9]      c2        911
    x[9]      OBJ       -606
    x[10]     c1        847
    x[10]     c2        518
    x[10]     OBJ       -400
    x[11]     c1        526
    x[11]     c2        93
    x[11]     OBJ       -207
    x[12]     c1        994
    x[12]     c2        849
    x[12]     OBJ       -304
    x[13]     c1        794
    x[13]     c2        2
    x[13]     OBJ       -754
    x[14]     c1        715
    x[14]     c2        510
    x[14]     OBJ       -942
    x[15]     c1        886
    x[15]     c2        865
    x[15]     OBJ       -639
    x[16]     c1        538
    x[16]     c2        989
    x[16]     OBJ       -896
    x[17]     c1        839
    x[17]     c2        66
    x[17]     OBJ       -880
    x[18]     c1        793
    x[18]     c2        384
    x[18]     OBJ       -665
    x[19]     c1        134
    x[19]     c2        917
    x[19]     OBJ       -759
    x[20]     c1        977
    x[20]     c2        944
    x[20]     OBJ       -268
RHS
    rhs       c1        5933
    rhs       c2        5116
RANGES
BOUNDS
 BV bounds    x[1]
 BV bounds    x[2]
 BV bounds    x[3]
 BV bounds    x[4]
 BV bounds    x[5]
 BV bounds    x[6]
 BV bounds    x[7]
 BV bounds    x[8]
 BV bounds    x[9]
 BV bounds    x[10]
 BV bounds    x[11]
 BV bounds    x[12]
 BV bounds    x[13]
 BV bounds    x[14]
 BV bounds    x[15]
 BV bounds    x[16]
 BV bounds    x[17]
 BV bounds    x[18]
 BV bounds    x[19]
 BV bounds    x[20]
ENDATA
